36 36
23
3 3 18 3
3 4 30 15
5 3 15 0
6 3 30 12
7 3 18 30
8 3 25 30
9 3 15 33
3 10 15 18
3 11 30 19
12 3 24 33
3 14 33 19
3 15 15 3
16 3 20 0
3 24 18 6
3 36 0 0
3 4 33 15
11 4 25 8
4 22 21 8
3 5 15 28
5 4 25 12
5 14 25 16
15 5 21 3
12 36 3 0
